Running MiniSat on FULL_RUN_MINISAT\43e492bccfd57029b758897b17d7f04f-pb_300_09_lb_07.cnf... 
============================[ Problem Statistics ]=============================
|                                                                             |
|  Number of variables:        145943                                         |
|  Number of clauses:          625454                                         |
|  Parse time:                   1.12 s                                       |
|                                                                             |
============================[ Search Statistics ]==============================
| Conflicts |          ORIGINAL         |          LEARNT          | Progress |
|           |    Vars  Clauses Literals |    Limit  Clauses Lit/Cl |          |
===============================================================================
|       100 |  116924   550912  1336816 |   202001      100     28 | 19.884 % |
|       250 |  116924   550912  1336816 |   222201      250    185 | 19.884 % |
|       475 |  116924   550912  1336816 |   244421      475    215 | 19.884 % |
|       812 |  116924   550912  1336816 |   268863      812    163 | 19.884 % |
|      1318 |  116924   550912  1336816 |   295749     1318    167 | 19.884 % |
|      2077 |  116924   550912  1336816 |   325324     2077    141 | 19.884 % |
|      3216 |  116924   550912  1336816 |   357857     3216    140 | 19.884 % |
|      4924 |  116924   550912  1336816 |   393642     4924    126 | 19.884 % |
|      7486 |  116924   550912  1336816 |   433007     7486    160 | 19.884 % |
|     11330 |  116924   550912  1336816 |   476307    11330    173 | 19.884 % |
|     17096 |  116924   550912  1336816 |   523938    17096    179 | 19.884 % |
ERROR: MiniSat process not found for FULL_RUN_MINISAT\44c25de7963c45e92a2407ad839f6e8b-Break_20_72.xml.cnf 
Finished MiniSat on FULL_RUN_MINISAT\44c25de7963c45e92a2407ad839f6e8b-Break_20_72.xml.cnf 